M+/Instances/S1-5-M+/S1-10-5-1-s-M+.txt
     100       5    0.10
       3       1       2       1       2       4      10       6      13      16       1
       1       1       1       1       2       4       9       9       7      13       1
       3       3       1       2       3       9       6      16      11       1       1
       1       2       2       3       2      15       8      14      16      12       1
       1       1       1       3       1       8      13       6      13       1       1
       2       1       1       3       3       9       8       0       0       7       1
       3       2       2       3       1       9       3       0       3      15       1
       2       1       1       1       2      14       1       5       4       7       1
       3       2       1       3       3       7      13       2       4       7       1
       3       3       3       1       1       1       3       8      13      15       1
       2       3       3       1       3      10      13       5       1       9       1
       2       1       1       2       2       3       5      13       9      11       1
       1       1       2       3       2       5       5      10      15       5       1
       1       3       3       3       1      12       6       6       2       5       1
       2       3       1       3       1      16      11       5       7      11       1
       3       3       3       3       1      15       5       6      16       0       1
       2       3       3       2       2       8      15       9       8      13       1
       2       2       3       1       2       8      13      16       3      15       1
       2       3       1       3       1      11      12      10       3       4       1
       2       3       1       1       3       9       8      12       7      11       1
       3       2       3       1       2       8       2       7      10      12       1
       2       1       2       2       2       1       5      14       1       8       1
       3       2       1       3       1       0      14       1      12      16       1
       2       3       2       3       1       8       7      15       6       0       1
       2       3       2       3       2      16       8      11      10      13       1
       1       2       1       2       1      12       0       9       5      15       1
       1       1       2       1       2       6       7       0       3      13       1
       1       2       3       1       2       0       5      15       8       6       1
       1       3       1       1       1      12       2       6       8      10       1
       3       2       2       2       2      15       0       0       9      15       1
       3       3       2       3       3      13      11       5       2      10       1
       3       1       2       2       2      10       3      13      11       0       1
       1       2       1       1       2       6       5      15       7       7       1
       3       1       1       1       3      16      10       7      14       0       1
       2       1       2       3       3       8      12       0      10      14       1
       2       1       3       1       2      14       1      15      16       3       1
       3       2       1       3       2       8       7       0      11       4       1
       3       1       3       2       2      14       0       1       7      15       1
       3       3       3       3       3      13       4       3      15       1       1
       1       2       3       2       1      10       3       1       8       6       1
       3       3       2       1       3       7       1       5      10       9       1
       2       3       2       3       1      14       1       0      14       6       1
       1       1       1       2       1       9      12      15      12      15       1
       1       1       2       1       3      16      13       6       5       3       1
       2       3       1       3       3      12      11      12      12      10       1
       2       3       2       2       3       1      15       2      11      10       1
       2       2       1       1       1      13       7      14      14       2       1
       1       2       1       3       3      14       3      14       5      14       1
       2       3       3       2       3       3      14      12       5       8       1
       2       3       1       2       1      11      10       6       9      14       1
       3       2       3       1       3       3       4       5       8      14       1
       2       1       1       2       3       5       9       9       7      12       1
       1       3       2       1       2       8       8       1       8       7       1
       3       2       1       1       1      13       2       1       7      15       1
       3       1       3       3       2       0      12       2      13      14       1
       3       2       1       3       2       0       4      12       2      15       1
       3       1       2       1       2       0       4       2       6       2       1
       3       2       3       1       1      15      13      13       3       3       1
       2       3       3       1       2      11      11       1      11       2       1
       2       2       3       1       3       8      10      10      15       0       1
       1       3       1       2       3      12       1      13       1      15       1
       2       3       3       1       2       0       1       3      16       5       1
       3       2       2       2       3       4       4      12       6       3       1
       1       1       3       1       1       1       4       0       7       3       1
       3       1       3       1       2       0      16       3       0       0       1
       2       2       3       2       2       8       0      11      11       3       1
       3       2       3       3       2      14       5       8      14      15       1
       2       3       3       2       2      13       0      12       4       0       1
       1       2       1       2       3      10       5       8       1      11       1
       1       2       1       2       3      10      10       7       2      15       1
       1       3       2       2       3      14      16       2       7      13       1
       1       1       1       2       3      13      13      16       1       7       1
       1       2       2       2       1       3       8       5       7       5       1
       2       3       2       2       3      16       7       0      15       4       1
       1       2       1       1       2       3      13       3       7       8       1
       3       3       1       1       1       8       6       2       9       5       1
       3       1       3       3       3      12      12       1       3      10       1
       2       1       1       1       1       7       8       6       3      14       1
       1       2       1       2       3      11       6       7       9       8       1
       1       3       1       2       2       4       4      11       3      12       1
       3       3       2       3       2       5      16       1      14       9       1
       3       3       3       2       1      12      13      12       1      14       1
       2       2       1       2       2       6       3      14       2      12       1
       2       3       2       2       1       4       7       9       9       4       1
       1       2       1       1       1       0      11       4      10       0       1
       1       3       3       1       2       2       4      14      16       1       1
       3       2       3       3       3       5       9       8       7       7       1
       3       3       3       2       3      14       9       1       0       1       1
       3       2       3       2       2       3       2       9      14      10       1
       1       2       1       3       1       3      11      14       9       5       1
       2       1       1       2       1       4      11      16      16       8       1
       2       3       1       3       1      16       0       5       0      12       1
       1       2       1       2       3       9       2       1       1       1       1
       3       2       2       1       2       9      15       1      10       1       1
       2       1       3       3       2       0       5       6      10      13       1
       3       3       2       2       1      11       5       4       2      13       1
       2       1       1       3       1      12       0       9       9      13       1
       1       1       2       1       3      11       5      16      10      11       1
       2       3       2       2       2      15       8       9       2      16       1
       2       3       1       2       1      12      11       3       3      11       1
      27      34      29      21      23
      55      71      55      41      46
     114      96     100      93     100